55141
6,18,125,144,416,465,573,600,660,801,830,862,986,1154,1232,1441,1604,1673,1720,2106,2215,2372,2469,2475,2482,2516,2660,2676,2715,2744,2770,2896,2909,2937,2961,3016,3683,3833,3948,4204,4217,4238,4274,4494,4512,4516,4528,4667,4754,4845,4858,4944,4981,5010,5168,5229,5423,5598,5664,5674,5677,5809,5984,6032,6131,6151,6171,6268,6436,6600,6638,6712,6996,7031,7068,7133,7185,7241,7396,7420,7429,7575,7625,7631,7700,7729,7741,7754,7874,7875,8003,8034,8121,8319,8398,8480,8514,8523,8616,8874,8979,9065,9273,9297,9423,9494,9543,9555,9648,9815,9890,9913
